benchmarks_vrp/CMT3/fixed_c/CMT3_3.vrp
NAME: CMT3_3
TYPE: CVRP
COMMENT: 826.14 - Cluster Nr.3
DIMENSION: 8
CAPACITY: 200
EDGE_WEIGHT_TYPE: EUC_2D
NODE_COORD_TYPE: TWOD_COORDS
NODE_COORD_SECTION: 
8 53 12
6 67 5
3 65 20
1 55 20
4 63 23
5 55 5
7 60 12
2 35 35
DEPOT_SECTION: 
2
-1
DEMAND_SECTION: 
7 31
2 0
6 25
8 6
4 2
3 6
1 19
5 29
EOF
