benchmarks_vrp/CMT3/fixed_c/CMT3_3.tour
NAME: CMT3_3 solution
TYPE: TOUR
TOUR_SECTION:
2 1 4 3 7 6 5 8 -1
-1
EOF